
******************************************************************************
This program contains Ipopt, a library for large-scale nonlinear optimization.
 Ipopt is released as open source code under the Eclipse Public License (EPL).
         For more information visit https://github.com/coin-or/Ipopt
******************************************************************************

This is Ipopt version 3.14.14, running with linear solver MUMPS 5.6.2.

Number of nonzeros in equality constraint Jacobian...:   299894
Number of nonzeros in inequality constraint Jacobian.:        0
Number of nonzeros in Lagrangian Hessian.............:    79980

Total number of variables............................:    87978
                     variables with only lower bounds:        0
                variables with lower and upper bounds:        0
                     variables with only upper bounds:        0
Total number of equality constraints.................:    79978
Total number of inequality constraints...............:        0
        inequality constraints with only lower bounds:        0
   inequality constraints with lower and upper bounds:        0
        inequality constraints with only upper bounds:        0

iter    objective    inf_pr   inf_du lg(mu)  ||d||  lg(rg) alpha_du alpha_pr  ls
   0  2.3000000e+02 9.80e+00 6.00e-02  -1.0 0.00e+00    -  0.00e+00 0.00e+00   0
   1  7.1866919e+02 1.83e-14 3.40e+02  -1.0 1.02e+01    -  1.00e+00 1.00e+00h  1
   2  7.1858548e+02 1.39e-09 5.51e-02  -1.0 5.51e-04   2.0 1.00e+00 1.00e+00f  1
   3  5.6870226e+02 4.02e-02 8.87e-03  -2.5 2.00e+00    -  1.00e+00 1.00e+00f  1
   4  5.6875833e+02 4.68e-04 3.14e-05  -2.5 1.83e-01    -  1.00e+00 1.00e+00h  1
   5  5.6875836e+02 1.99e-09 1.16e-10  -5.7 4.61e-04    -  1.00e+00 1.00e+00h  1

Number of Iterations....: 5

                                   (scaled)                 (unscaled)
Objective...............:   5.6875836054909485e+02    5.6875836054909485e+02
Dual infeasibility......:   1.1640745214715989e-10    1.1640745214715989e-10
Constraint violation....:   1.9870887643658186e-09    1.9870887643658186e-09
Variable bound violation:   0.0000000000000000e+00    0.0000000000000000e+00
Complementarity.........:   0.0000000000000000e+00    0.0000000000000000e+00
Overall NLP error.......:   1.9870887643658186e-09    1.9870887643658186e-09


Number of objective function evaluations             = 6
Number of objective gradient evaluations             = 6
Number of equality constraint evaluations            = 6
Number of inequality constraint evaluations          = 0
Number of equality constraint Jacobian evaluations   = 6
Number of inequality constraint Jacobian evaluations = 0
Number of Lagrangian Hessian evaluations             = 5
Total seconds in IPOPT (w/o function evaluations)    =      2.861
Total seconds in NLP function evaluations            =      0.780


Timing Statistics:

OverallAlgorithm....................:     13.663 (sys:     11.707 wall:      3.642)
 PrintProblemStatistics.............:      0.009 (sys:      0.009 wall:      0.002)
 InitializeIterates.................:      0.397 (sys:      0.065 wall:      0.461)
 UpdateHessian......................:      4.210 (sys:      4.033 wall:      0.525)
 OutputIteration....................:      0.004 (sys:      0.006 wall:      0.001)
 UpdateBarrierParameter.............:      0.001 (sys:      0.001 wall:      0.000)
 ComputeSearchDirection.............:      6.887 (sys:      5.497 wall:      2.384)
 ComputeAcceptableTrialPoint........:      1.076 (sys:      1.019 wall:      0.132)
 AcceptTrialPoint...................:      0.002 (sys:      0.002 wall:      0.000)
 CheckConvergence...................:      1.075 (sys:      1.074 wall:      0.136)
PDSystemSolverTotal.................:      6.882 (sys:      5.488 wall:      2.382)
 PDSystemSolverSolveOnce............:      6.531 (sys:      5.233 wall:      2.338)
 ComputeResiduals...................:      0.273 (sys:      0.194 wall:      0.035)
 StdAugSystemSolverMultiSolve.......:      6.805 (sys:      5.255 wall:      2.686)
 LinearSystemScaling................:      0.000 (sys:      0.000 wall:      0.000)
 LinearSystemSymbolicFactorization..:      0.133 (sys:      0.023 wall:      0.156)
 LinearSystemFactorization..........:      0.000 (sys:      0.000 wall:      0.000)
 LinearSystemBackSolve..............:      4.356 (sys:      4.141 wall:      0.738)
 LinearSystemStructureConverter.....:      0.000 (sys:      0.000 wall:      0.000)
  LinearSystemStructureConverterInit:      0.000 (sys:      0.000 wall:      0.000)
QualityFunctionSearch...............:      0.000 (sys:      0.000 wall:      0.000)
TryCorrector........................:      0.000 (sys:      0.000 wall:      0.000)
Task1...............................:      0.000 (sys:      0.000 wall:      0.000)
Task2...............................:      0.000 (sys:      0.000 wall:      0.000)
Task3...............................:      0.000 (sys:      0.000 wall:      0.000)
Task4...............................:      0.000 (sys:      0.000 wall:      0.000)
Task5...............................:      0.000 (sys:      0.000 wall:      0.000)
Task6...............................:      0.000 (sys:      0.000 wall:      0.000)
Function Evaluations................:      6.134 (sys:      5.966 wall:      0.780)
 Objective function.................:      0.191 (sys:      0.205 wall:      0.025)
 Objective function gradient........:      0.151 (sys:      0.153 wall:      0.021)
 Equality constraints...............:      0.949 (sys:      0.940 wall:      0.120)
 Inequality constraints.............:      0.000 (sys:      0.000 wall:      0.000)
 Equality constraint Jacobian.......:      0.635 (sys:      0.637 wall:      0.089)
 Inequality constraint Jacobian.....:      0.000 (sys:      0.000 wall:      0.000)
 Lagrangian Hessian.................:      4.208 (sys:      4.032 wall:      0.525)

EXIT: Optimal Solution Found.
